DIMACS_lns/graph-1000-57.col
p edge 1000 1855
e 1 203
e 1 671
e 1 883
e 1 19
e 1 779
e 1 277
e 1 574
e 1 927
e 1 512
e 4 416
e 4 203
e 4 690
e 4 29
e 4 679
e 4 630
e 4 825
e 5 605
e 5 528
e 5 216
e 5 357
e 5 698
e 6 902
e 6 528
e 6 574
e 6 442
e 6 772
e 6 333
e 7 316
e 7 826
e 7 479
e 7 768
e 7 174
e 7 169
e 7 905
e 8 402
e 8 266
e 8 999
e 8 855
e 8 526
e 8 425
e 9 991
e 9 325
e 9 64
e 9 462
e 9 40
e 9 208
e 9 792
e 9 461
e 10 803
e 10 372
e 10 876
e 11 21
e 11 681
e 11 94
e 11 90
e 11 484
e 11 308
e 11 267
e 12 545
e 12 279
e 12 849
e 12 447
e 12 356
e 12 115
e 13 44
e 13 991
e 13 949
e 13 351
e 13 241
e 15 508
e 15 258
e 15 982
e 15 918
e 15 825
e 15 19
e 17 565
e 17 315
e 17 248
e 18 352
e 18 396
e 18 962
e 18 474
e 18 469
e 18 369
e 18 176
e 18 333
e 19 813
e 19 110
e 19 51
e 19 369
e 19 421
e 19 518
e 19 748
e 21 680
e 21 491
e 21 492
e 21 133
e 22 865
e 22 129
e 22 115
e 22 323
e 22 686
e 24 951
e 24 39
e 24 414
e 24 477
e 25 469
e 25 983
e 25 906
e 25 940
e 25 159
e 26 739
e 26 151
e 26 596
e 26 344
e 27 593
e 27 118
e 27 598
e 27 766
e 27 350
e 27 653
e 27 539
e 29 507
e 29 438
e 29 631
e 29 136
e 29 412
e 30 645
e 30 827
e 30 334
e 30 771
e 30 255
e 31 709
e 31 712
e 31 801
e 31 308
e 31 192
e 31 283
e 31 365
e 31 393
e 31 959
e 32 379
e 32 815
e 32 628
e 33 830
e 33 294
e 33 718
e 35 891
e 35 226
e 35 466
e 35 593
e 36 134
e 36 384
e 36 818
e 36 542
e 37 542
e 37 978
e 37 103
e 37 481
e 37 622
e 37 632
e 38 445
e 38 313
e 38 135
e 38 124
e 38 845
e 38 101
e 39 627
e 39 961
e 39 477
e 39 101
e 39 359
e 40 279
e 40 448
e 40 396
e 40 642
e 42 620
e 42 314
e 42 383
e 42 439
e 43 776
e 43 204
e 43 621
e 44 418
e 44 149
e 44 725
e 45 674
e 45 756
e 45 947
e 47 270
e 47 629
e 47 898
e 47 797
e 47 223
e 49 682
e 49 538
e 49 196
e 49 940
e 51 787
e 51 964
e 51 94
e 51 833
e 52 587
e 52 533
e 52 522
e 53 55
e 53 862
e 53 224
e 53 212
e 53 856
e 53 606
e 53 682
e 54 880
e 54 632
e 54 563
e 55 121
e 55 947
e 55 275
e 56 673
e 56 190
e 56 662
e 56 873
e 56 103
e 56 474
e 56 505
e 58 668
e 58 842
e 58 898
e 58 216
e 58 883
e 58 809
e 59 732
e 59 76
e 59 982
e 60 868
e 60 344
e 60 809
e 60 394
e 60 409
e 60 302
e 61 222
e 61 477
e 61 918
e 62 482
e 62 521
e 62 98
e 62 778
e 62 813
e 64 876
e 64 395
e 65 171
e 65 323
e 65 944
e 67 609
e 67 510
e 67 514
e 68 845
e 68 597
e 68 642
e 68 447
e 69 553
e 69 370
e 69 334
e 69 793
e 70 331
e 70 663
e 70 751
e 70 867
e 70 876
e 70 115
e 71 550
e 71 952
e 71 285
e 72 351
e 72 314
e 72 215
e 72 170
e 73 938
e 73 459
e 73 422
e 73 116
e 73 462
e 73 742
e 74 593
e 74 401
e 74 793
e 74 661
e 74 446
e 74 407
e 75 663
e 75 431
e 75 424
e 75 584
e 75 732
e 75 513
e 76 493
e 76 672
e 76 676
e 76 743
e 77 673
e 77 538
e 77 590
e 80 345
e 80 609
e 80 482
e 80 200
e 80 387
e 81 845
e 81 724
e 81 501
e 82 309
e 82 987
e 82 892
e 82 391
e 82 190
e 82 218
e 82 243
e 82 680
e 82 118
e 83 488
e 83 953
e 83 327
e 83 845
e 83 470
e 83 292
e 84 277
e 84 98
e 84 529
e 84 522
e 84 494
e 85 865
e 85 442
e 85 379
e 85 288
e 85 647
e 85 935
e 85 887
e 85 185
e 87 375
e 87 493
e 87 723
e 88 625
e 88 545
e 88 298
e 88 444
e 88 227
e 90 557
e 90 262
e 90 934
e 90 474
e 90 665
e 90 780
e 90 778
e 90 491
e 91 336
e 91 618
e 91 354
e 92 217
e 92 781
e 92 838
e 92 621
e 92 768
e 93 433
e 93 858
e 93 131
e 93 915
e 93 108
e 93 410
e 93 944
e 94 256
e 94 810
e 95 496
e 95 701
e 95 850
e 96 328
e 96 546
e 96 827
e 96 366
e 97 235
e 97 687
e 97 245
e 98 182
e 98 673
e 98 316
e 99 651
e 99 450
e 99 538
e 99 213
e 100 349
e 100 373
e 100 710
e 100 228
e 101 989
e 101 419
e 101 986
e 102 197
e 102 725
e 102 877
e 102 671
e 102 494
e 103 216
e 105 571
e 105 908
e 105 852
e 105 605
e 105 710
e 105 759
e 106 367
e 106 536
e 106 462
e 107 877
e 107 190
e 107 889
e 107 369
e 108 855
e 108 956
e 110 276
e 110 401
e 110 628
e 110 270
e 110 499
e 110 989
e 110 692
e 110 804
e 111 903
e 111 331
e 111 389
e 111 273
e 111 276
e 111 950
e 112 747
e 112 468
e 112 479
e 112 410
e 112 343
e 112 811
e 113 771
e 113 237
e 113 383
e 113 974
e 113 603
e 113 228
e 115 703
e 115 153
e 115 177
e 115 324
e 116 128
e 116 544
e 116 800
e 116 698
e 116 930
e 117 515
e 117 468
e 117 890
e 117 493
e 117 666
e 117 425
e 118 506
e 118 423
e 118 752
e 118 991
e 118 975
e 119 265
e 119 552
e 119 710
e 119 215
e 119 812
e 119 294
e 119 768
e 120 354
e 120 415
e 120 949
e 120 171
e 120 852
e 120 690
e 120 186
e 121 381
e 121 184
e 121 412
e 121 225
e 121 676
e 122 370
e 122 668
e 122 411
e 124 756
e 124 324
e 124 592
e 124 873
e 124 849
e 128 636
e 128 778
e 128 980
e 129 333
e 129 459
e 129 999
e 129 204
e 129 618
e 131 297
e 131 935
e 131 652
e 131 434
e 131 810
e 132 335
e 132 269
e 132 891
e 132 609
e 132 793
e 132 894
e 132 518
e 132 690
e 132 970
e 132 654
e 133 583
e 133 485
e 134 347
e 134 369
e 135 961
e 135 743
e 136 704
e 136 156
e 136 681
e 137 502
e 137 977
e 137 508
e 137 153
e 140 755
e 140 504
e 140 242
e 140 597
e 140 658
e 141 351
e 141 979
e 141 596
e 145 729
e 145 403
e 145 544
e 145 916
e 146 902
e 146 479
e 146 384
e 147 721
e 147 756
e 147 698
e 148 528
e 148 579
e 148 827
e 148 744
e 149 493
e 149 551
e 149 645
e 150 867
e 150 335
e 150 947
e 150 639
e 150 156
e 151 793
e 151 409
e 152 953
e 152 822
e 152 920
e 152 643
e 152 445
e 153 565
e 153 362
e 153 991
e 156 839
e 157 213
e 157 846
e 157 318
e 159 797
e 159 850
e 159 399
e 159 529
e 160 924
e 160 484
e 160 839
e 160 793
e 160 224
e 161 376
e 161 363
e 161 427
e 161 387
e 165 593
e 165 876
e 165 605
e 165 795
e 165 207
e 167 644
e 167 225
e 167 748
e 167 861
e 167 654
e 167 668
e 169 271
e 169 550
e 169 323
e 170 383
e 170 952
e 170 253
e 171 218
e 171 533
e 171 484
e 171 561
e 172 180
e 172 339
e 172 860
e 172 274
e 174 664
e 174 273
e 176 304
e 176 663
e 176 479
e 177 366
e 177 575
e 179 984
e 179 333
e 179 366
e 180 722
e 180 584
e 180 536
e 181 830
e 181 190
e 181 659
e 182 861
e 182 561
e 182 893
e 182 425
e 182 821
e 182 506
e 182 952
e 182 532
e 184 579
e 184 345
e 184 706
e 185 253
e 185 351
e 185 993
e 185 872
e 186 626
e 186 234
e 186 485
e 187 702
e 187 685
e 187 950
e 189 207
e 189 279
e 189 476
e 189 706
e 190 917
e 190 870
e 190 846
e 190 353
e 190 325
e 190 465
e 191 952
e 191 946
e 191 949
e 192 705
e 192 464
e 192 914
e 193 623
e 193 630
e 193 320
e 195 841
e 195 693
e 195 699
e 196 689
e 196 704
e 196 483
e 196 706
e 197 700
e 197 839
e 197 546
e 197 857
e 200 422
e 200 205
e 201 246
e 201 861
e 201 356
e 203 440
e 203 315
e 204 787
e 204 652
e 204 965
e 204 396
e 204 550
e 205 238
e 205 371
e 205 759
e 207 969
e 207 499
e 207 243
e 207 576
e 207 542
e 208 481
e 208 278
e 208 349
e 209 857
e 209 899
e 209 444
e 209 357
e 210 758
e 210 755
e 210 925
e 212 532
e 212 479
e 212 674
e 213 341
e 213 245
e 213 389
e 215 755
e 215 773
e 215 779
e 216 630
e 216 461
e 217 662
e 217 689
e 217 573
e 217 697
e 217 355
e 218 969
e 222 422
e 222 340
e 223 993
e 223 365
e 223 710
e 223 516
e 224 459
e 224 821
e 224 483
e 224 552
e 224 925
e 225 887
e 225 331
e 225 855
e 226 772
e 226 445
e 226 298
e 227 623
e 227 679
e 228 660
e 228 431
e 228 707
e 228 662
e 228 993
e 229 832
e 229 663
e 229 448
e 229 685
e 229 476
e 231 930
e 231 833
e 231 830
e 232 946
e 232 687
e 232 245
e 232 372
e 232 855
e 233 779
e 233 706
e 233 877
e 233 657
e 233 958
e 234 282
e 234 453
e 234 647
e 235 699
e 235 680
e 235 613
e 235 491
e 237 238
e 237 980
e 237 962
e 237 528
e 238 327
e 239 834
e 239 594
e 239 827
e 239 503
e 239 288
e 241 855
e 241 890
e 241 999
e 242 770
e 242 840
e 243 677
e 245 354
e 245 497
e 245 811
e 245 469
e 245 776
e 245 681
e 245 835
e 245 416
e 245 928
e 245 451
e 245 403
e 246 822
e 246 979
e 247 865
e 247 526
e 247 672
e 247 536
e 248 593
e 248 879
e 248 965
e 248 768
e 249 648
e 249 750
e 249 309
e 249 485
e 251 943
e 251 752
e 251 767
e 251 645
e 251 678
e 251 883
e 252 493
e 252 925
e 252 475
e 252 844
e 252 354
e 252 436
e 253 311
e 253 469
e 253 647
e 253 463
e 255 760
e 255 627
e 255 930
e 255 509
e 255 823
e 255 804
e 256 590
e 256 496
e 256 595
e 256 274
e 256 696
e 256 775
e 256 539
e 256 764
e 257 677
e 257 572
e 257 701
e 258 376
e 258 774
e 259 860
e 259 442
e 259 484
e 260 631
e 260 293
e 260 720
e 260 861
e 260 856
e 260 767
e 262 511
e 262 702
e 262 989
e 265 345
e 265 782
e 265 747
e 265 852
e 265 897
e 266 818
e 266 723
e 267 997
e 267 287
e 269 622
e 269 531
e 269 570
e 269 953
e 270 636
e 270 427
e 270 924
e 271 878
e 271 595
e 271 772
e 273 835
e 274 343
e 274 792
e 275 490
e 275 687
e 275 789
e 275 572
e 275 593
e 275 873
e 275 594
e 276 612
e 276 672
e 277 470
e 277 994
e 277 557
e 278 511
e 278 565
e 278 400
e 278 341
e 279 678
e 279 644
e 281 361
e 281 419
e 281 369
e 281 935
e 282 557
e 282 512
e 283 856
e 283 542
e 283 431
e 284 590
e 284 541
e 284 804
e 284 555
e 285 990
e 285 877
e 285 645
e 285 958
e 286 897
e 286 893
e 286 691
e 286 735
e 286 419
e 287 345
e 287 914
e 287 570
e 287 894
e 287 389
e 288 952
e 288 789
e 288 451
e 288 550
e 288 931
e 288 538
e 288 865
e 292 653
e 292 355
e 292 720
e 292 684
e 292 872
e 292 311
e 292 516
e 293 548
e 293 347
e 293 752
e 293 840
e 293 651
e 294 684
e 294 654
e 294 747
e 297 830
e 297 718
e 297 597
e 298 826
e 300 558
e 300 327
e 300 812
e 301 858
e 301 802
e 301 651
e 302 453
e 302 536
e 302 756
e 302 896
e 304 388
e 304 984
e 304 759
e 304 538
e 305 631
e 305 858
e 305 697
e 305 706
e 305 548
e 306 400
e 306 551
e 306 798
e 308 964
e 308 663
e 309 644
e 309 555
e 311 472
e 311 940
e 311 898
e 313 450
e 313 379
e 313 666
e 314 602
e 314 470
e 315 463
e 315 724
e 315 901
e 316 325
e 318 397
e 318 858
e 318 532
e 318 850
e 318 999
e 318 647
e 319 994
e 319 385
e 319 388
e 320 393
e 320 505
e 320 592
e 320 970
e 320 571
e 322 578
e 322 955
e 322 647
e 322 796
e 322 489
e 323 803
e 323 546
e 323 991
e 323 603
e 323 328
e 323 801
e 323 989
e 323 698
e 323 872
e 323 842
e 324 506
e 324 563
e 325 453
e 325 967
e 325 833
e 325 590
e 325 597
e 325 841
e 325 938
e 327 811
e 327 964
e 327 473
e 328 534
e 328 742
e 328 691
e 328 599
e 328 512
e 329 915
e 329 344
e 329 479
e 333 450
e 333 848
e 333 488
e 334 409
e 334 347
e 335 524
e 335 532
e 335 970
e 335 581
e 336 892
e 336 576
e 336 583
e 336 365
e 336 803
e 336 520
e 338 744
e 338 504
e 338 376
e 338 846
e 338 963
e 339 730
e 339 526
e 339 658
e 340 768
e 340 899
e 341 751
e 341 396
e 341 770
e 343 841
e 343 633
e 343 465
e 343 466
e 343 418
e 343 496
e 343 474
e 344 798
e 344 461
e 344 562
e 344 716
e 345 576
e 345 352
e 347 914
e 349 502
e 349 670
e 350 870
e 350 909
e 350 842
e 351 411
e 351 499
e 351 799
e 352 609
e 352 481
e 352 615
e 353 717
e 353 694
e 354 548
e 354 826
e 354 991
e 354 901
e 355 553
e 355 846
e 355 982
e 355 514
e 356 950
e 356 903
e 356 658
e 356 700
e 357 614
e 357 407
e 357 906
e 359 552
e 359 822
e 361 839
e 361 626
e 361 931
e 361 900
e 362 670
e 362 370
e 362 576
e 363 949
e 363 583
e 363 609
e 363 557
e 363 791
e 365 802
e 365 797
e 366 592
e 366 789
e 366 809
e 367 729
e 367 561
e 367 938
e 367 812
e 369 515
e 371 758
e 371 524
e 372 769
e 373 625
e 373 475
e 373 674
e 375 967
e 375 596
e 376 970
e 379 750
e 379 418
e 379 464
e 379 642
e 380 876
e 380 573
e 380 584
e 380 868
e 381 551
e 381 991
e 381 621
e 381 442
e 381 475
e 381 870
e 381 654
e 382 993
e 382 679
e 382 946
e 383 482
e 383 659
e 383 516
e 383 902
e 384 572
e 384 839
e 384 815
e 384 772
e 384 391
e 385 772
e 385 387
e 386 721
e 386 769
e 386 436
e 386 833
e 386 664
e 387 868
e 387 438
e 387 629
e 387 977
e 388 643
e 388 589
e 388 721
e 389 602
e 389 597
e 391 670
e 393 469
e 393 955
e 393 780
e 393 956
e 393 589
e 394 563
e 394 436
e 395 792
e 395 719
e 395 548
e 395 652
e 395 475
e 395 506
e 396 859
e 396 782
e 396 773
e 396 958
e 397 597
e 397 643
e 399 807
e 399 520
e 399 555
e 399 574
e 400 609
e 400 599
e 401 651
e 402 944
e 402 663
e 403 745
e 403 897
e 403 474
e 403 658
e 405 731
e 405 912
e 405 956
e 407 672
e 407 746
e 409 689
e 409 430
e 409 446
e 409 784
e 409 598
e 410 511
e 411 744
e 411 833
e 411 541
e 411 972
e 411 500
e 412 748
e 413 840
e 413 920
e 413 742
e 413 491
e 414 613
e 414 864
e 414 782
e 414 989
e 415 457
e 415 768
e 416 501
e 416 906
e 417 524
e 417 672
e 417 722
e 418 583
e 418 873
e 419 943
e 419 802
e 419 558
e 419 645
e 419 997
e 419 495
e 421 547
e 421 465
e 421 686
e 422 423
e 422 522
e 422 751
e 423 609
e 423 672
e 424 788
e 424 724
e 425 472
e 426 438
e 426 474
e 426 661
e 426 514
e 427 496
e 430 587
e 430 758
e 433 770
e 433 780
e 433 894
e 433 747
e 434 743
e 434 810
e 436 480
e 438 545
e 439 657
e 439 649
e 439 540
e 440 857
e 440 561
e 440 510
e 442 696
e 442 571
e 442 823
e 442 854
e 444 787
e 444 502
e 444 774
e 445 625
e 446 542
e 446 901
e 446 837
e 447 470
e 448 622
e 448 834
e 450 743
e 450 866
e 451 760
e 451 511
e 451 718
e 453 967
e 453 743
e 453 1000
e 453 930
e 453 861
e 457 784
e 457 859
e 457 951
e 457 542
e 461 763
e 461 779
e 461 509
e 461 773
e 461 694
e 461 964
e 461 550
e 462 702
e 462 669
e 463 896
e 463 744
e 464 518
e 464 821
e 464 531
e 465 984
e 465 751
e 465 906
e 465 602
e 465 592
e 465 908
e 466 490
e 466 965
e 466 748
e 466 934
e 468 848
e 469 664
e 469 845
e 469 900
e 469 804
e 469 516
e 469 893
e 469 901
e 470 787
e 470 807
e 471 989
e 471 506
e 471 915
e 471 996
e 472 835
e 472 924
e 472 893
e 473 800
e 473 521
e 473 846
e 473 943
e 473 534
e 474 731
e 474 729
e 475 880
e 476 622
e 476 717
e 477 752
e 477 978
e 479 979
e 479 649
e 479 898
e 480 563
e 480 594
e 481 658
e 483 635
e 483 506
e 484 495
e 484 982
e 488 891
e 488 933
e 489 861
e 489 793
e 489 692
e 489 849
e 489 706
e 490 660
e 491 518
e 492 685
e 492 505
e 492 977
e 492 671
e 493 813
e 494 817
e 494 745
e 494 578
e 494 608
e 494 890
e 495 817
e 495 638
e 495 662
e 495 578
e 495 509
e 496 501
e 496 605
e 497 760
e 497 997
e 497 767
e 499 952
e 499 784
e 499 616
e 500 598
e 500 644
e 500 961
e 500 546
e 501 538
e 501 626
e 501 860
e 502 613
e 502 771
e 503 845
e 503 891
e 503 779
e 504 742
e 505 649
e 505 846
e 505 788
e 506 728
e 506 660
e 507 996
e 507 714
e 507 974
e 508 879
e 508 703
e 508 837
e 510 615
e 510 536
e 510 621
e 511 616
e 511 704
e 511 638
e 512 810
e 512 552
e 513 544
e 513 896
e 513 823
e 514 925
e 515 595
e 516 526
e 516 614
e 516 716
e 517 816
e 517 563
e 517 534
e 518 768
e 518 825
e 520 684
e 520 634
e 521 584
e 521 671
e 521 524
e 522 784
e 522 649
e 522 726
e 522 720
e 523 687
e 523 707
e 523 662
e 523 746
e 523 605
e 523 661
e 523 814
e 523 612
e 524 945
e 524 542
e 526 565
e 528 584
e 529 639
e 529 852
e 531 946
e 531 694
e 533 994
e 533 877
e 533 891
e 534 927
e 534 698
e 534 592
e 536 927
e 536 945
e 539 563
e 540 615
e 540 897
e 540 636
e 541 756
e 542 861
e 545 892
e 546 558
e 546 760
e 547 714
e 547 629
e 548 685
e 548 916
e 548 602
e 548 728
e 550 614
e 550 945
e 551 907
e 551 815
e 552 816
e 552 795
e 553 776
e 555 660
e 555 677
e 555 605
e 555 741
e 555 839
e 555 898
e 558 940
e 558 741
e 561 793
e 561 920
e 562 775
e 562 822
e 565 773
e 565 861
e 565 912
e 565 759
e 569 732
e 569 730
e 569 912
e 569 906
e 570 980
e 570 899
e 571 670
e 571 662
e 571 1000
e 571 635
e 571 892
e 572 608
e 572 891
e 573 822
e 574 965
e 574 840
e 575 658
e 575 846
e 576 653
e 578 781
e 578 592
e 578 969
e 579 862
e 579 803
e 579 648
e 581 718
e 581 705
e 581 844
e 584 955
e 584 972
e 587 851
e 587 914
e 587 802
e 587 795
e 587 762
e 589 965
e 590 776
e 590 924
e 590 851
e 592 621
e 592 839
e 592 950
e 592 990
e 592 615
e 592 764
e 594 817
e 595 897
e 595 854
e 595 907
e 596 712
e 597 649
e 597 956
e 598 643
e 598 782
e 598 700
e 599 616
e 599 605
e 602 780
e 602 797
e 603 803
e 605 907
e 605 608
e 606 800
e 606 709
e 606 680
e 608 782
e 608 990
e 609 940
e 611 933
e 611 807
e 611 865
e 611 684
e 612 772
e 613 730
e 614 693
e 614 659
e 615 969
e 616 905
e 616 977
e 616 632
e 618 634
e 618 947
e 620 742
e 620 868
e 620 873
e 620 938
e 621 679
e 621 999
e 622 788
e 623 903
e 623 974
e 623 717
e 623 751
e 625 837
e 626 860
e 627 671
e 627 739
e 628 989
e 629 720
e 629 703
e 630 802
e 630 928
e 631 962
e 631 660
e 631 978
e 631 639
e 632 851
e 633 725
e 633 928
e 633 735
e 634 714
e 635 729
e 635 732
e 635 818
e 636 951
e 636 928
e 638 952
e 638 908
e 639 909
e 643 822
e 644 741
e 645 937
e 645 649
e 647 781
e 648 864
e 649 934
e 649 722
e 650 666
e 650 796
e 650 940
e 651 980
e 652 844
e 653 963
e 653 774
e 654 997
e 654 723
e 657 766
e 659 926
e 661 972
e 662 748
e 662 974
e 664 825
e 664 796
e 665 669
e 665 902
e 665 769
e 666 908
e 666 728
e 666 951
e 668 705
e 669 731
e 669 741
e 670 771
e 670 787
e 670 941
e 670 986
e 672 845
e 674 956
e 676 925
e 678 861
e 678 729
e 678 769
e 679 714
e 680 920
e 680 851
e 680 852
e 681 697
e 682 937
e 682 766
e 682 684
e 684 866
e 684 864
e 685 730
e 686 763
e 687 756
e 691 993
e 691 741
e 691 861
e 692 773
e 692 832
e 693 840
e 693 728
e 693 859
e 693 984
e 694 842
e 696 726
e 699 941
e 700 899
e 701 822
e 706 722
e 707 926
e 709 814
e 712 864
e 712 876
e 714 986
e 716 764
e 717 899
e 717 768
e 718 741
e 719 866
e 719 955
e 720 762
e 720 867
e 720 752
e 721 914
e 722 909
e 724 963
e 726 751
e 728 887
e 729 814
e 732 861
e 735 916
e 735 777
e 739 797
e 741 867
e 742 887
e 743 796
e 745 891
e 746 991
e 746 798
e 747 823
e 747 901
e 750 775
e 751 772
e 751 838
e 755 979
e 756 889
e 758 789
e 759 854
e 760 795
e 760 804
e 762 791
e 763 979
e 764 803
e 764 846
e 766 956
e 767 842
e 768 979
e 769 975
e 770 780
e 771 926
e 773 900
e 774 918
e 776 879
e 776 880
e 777 858
e 777 779
e 778 830
e 778 870
e 778 791
e 779 890
e 779 975
e 781 914
e 784 834
e 787 943
e 789 896
e 791 955
e 795 815
e 797 928
e 799 897
e 799 859
e 799 851
e 800 969
e 801 804
e 803 902
e 807 810
e 807 990
e 809 856
e 810 980
e 813 915
e 816 897
e 818 832
e 818 912
e 822 943
e 830 969
e 832 990
e 837 857
e 838 927
e 844 907
e 844 927
e 846 930
e 848 878
e 852 987
e 854 950
e 856 897
e 858 873
e 860 909
e 861 953
e 862 974
e 862 979
e 866 898
e 866 928
e 867 899
e 868 967
e 878 901
e 879 991
e 880 937
e 880 907
e 889 928
e 889 917
e 890 931
e 891 896
e 892 928
e 893 956
e 894 969
e 899 946
e 901 955
e 903 933
e 903 958
e 905 993
e 906 917
e 908 961
e 914 916
e 916 959
e 924 938
e 924 987
e 926 996
e 930 938
e 931 993
e 935 983
e 937 938
e 940 959
e 941 965
e 941 994
e 975 997
e 983 991
e 996 1000
